(set-info :smt-lib-version 2.6)
(set-logic QF_LRA)
(set-info :source |
TLP-GP automated DTP to SMT-LIB encoding for planning
by F.Maris and P.Regnier, IRIT - Universite Paul Sabatier, Toulouse

|)
(set-info :category "industrial")
(set-info :status sat)
(declare-fun St_spy_variable () Real)
(declare-fun t_Init_0 () Real)
(declare-fun t_Goal_6 () Real)
(declare-fun t_BAKE_CERAMIC1_p2_k2_2 () Real)
(declare-fun t_TREAT_CERAMIC1_p2_3 () Real)
(declare-fun t_BAKE_CERAMIC1_p2_k2_3 () Real)
(declare-fun t_BAKE_CERAMIC1_p1_k2_2 () Real)
(declare-fun t_TREAT_CERAMIC1_p1_3 () Real)
(declare-fun t_BAKE_CERAMIC1_p1_k2_3 () Real)
(declare-fun t_MAKE_STRUCTURE_p1_p2_4 () Real)
(declare-fun t_BAKE_STRUCTURE_p1_p2_k1_5 () Real)
(declare-fun t_BAKE_CERAMIC1_p4_k2_2 () Real)
(declare-fun t_TREAT_CERAMIC1_p4_3 () Real)
(declare-fun t_BAKE_CERAMIC1_p4_k2_3 () Real)
(declare-fun t_BAKE_CERAMIC1_p3_k2_2 () Real)
(declare-fun t_TREAT_CERAMIC1_p3_3 () Real)
(declare-fun t_FIRE_KILN2_k2_2 () Real)
(declare-fun t_BAKE_CERAMIC1_p3_k2_3 () Real)
(declare-fun t_MAKE_STRUCTURE_p3_p4_4 () Real)
(declare-fun t_BAKE_STRUCTURE_p3_p4_k1_5 () Real)
(declare-fun t_BAKE_CERAMIC2_p6_k2_2 () Real)
(declare-fun t_TREAT_CERAMIC2_p6_3 () Real)
(declare-fun t_BAKE_CERAMIC2_p6_k2_3 () Real)
(declare-fun t_BAKE_CERAMIC2_p5_k2_2 () Real)
(declare-fun t_TREAT_CERAMIC2_p5_3 () Real)
(declare-fun t_BAKE_CERAMIC2_p5_k2_3 () Real)
(declare-fun t_MAKE_STRUCTURE_p5_p6_4 () Real)
(declare-fun t_BAKE_STRUCTURE_p5_p6_k1_5 () Real)
(declare-fun t_BAKE_CERAMIC2_p8_k2_2 () Real)
(declare-fun t_TREAT_CERAMIC2_p8_3 () Real)
(declare-fun t_BAKE_CERAMIC2_p8_k2_3 () Real)
(declare-fun t_BAKE_CERAMIC2_p7_k2_2 () Real)
(declare-fun t_TREAT_CERAMIC2_p7_3 () Real)
(declare-fun t_BAKE_CERAMIC2_p7_k2_3 () Real)
(declare-fun t_MAKE_STRUCTURE_p7_p8_4 () Real)
(declare-fun t_BAKE_STRUCTURE_p7_p8_k1_5 () Real)
(declare-fun t_BAKE_CERAMIC2_p10_k2_2 () Real)
(declare-fun t_TREAT_CERAMIC2_p10_3 () Real)
(declare-fun t_BAKE_CERAMIC2_p10_k2_3 () Real)
(declare-fun t_BAKE_CERAMIC2_p9_k2_2 () Real)
(declare-fun t_TREAT_CERAMIC2_p9_3 () Real)
(declare-fun t_FIRE_KILN2_k2_1 () Real)
(declare-fun t_BAKE_CERAMIC2_p9_k2_3 () Real)
(declare-fun t_MAKE_STRUCTURE_p9_p10_4 () Real)
(declare-fun t_FIRE_KILN1_k1_1 () Real)
(declare-fun t_BAKE_STRUCTURE_p9_p10_k1_5 () Real)
(assert (let ((?v_25 (- t_Goal_6 t_BAKE_STRUCTURE_p1_p2_k1_5)) (?v_37 (- t_Goal_6 t_BAKE_STRUCTURE_p3_p4_k1_5)) (?v_45 (- t_Goal_6 t_BAKE_STRUCTURE_p5_p6_k1_5)) (?v_53 (- t_Goal_6 t_BAKE_STRUCTURE_p7_p8_k1_5)) (?v_61 (- t_Goal_6 t_BAKE_STRUCTURE_p9_p10_k1_5)) (?v_59 (- t_BAKE_CERAMIC2_p9_k2_3 t_FIRE_KILN2_k2_1))) (let ((?v_3 (<= ?v_59 10)) (?v_57 (- t_BAKE_CERAMIC2_p9_k2_2 t_FIRE_KILN2_k2_1))) (let ((?v_4 (<= ?v_57 10)) (?v_56 (- t_BAKE_CERAMIC2_p10_k2_3 t_FIRE_KILN2_k2_1))) (let ((?v_5 (<= ?v_56 10)) (?v_54 (- t_BAKE_CERAMIC2_p10_k2_2 t_FIRE_KILN2_k2_1))) (let ((?v_6 (<= ?v_54 10)) (?v_51 (- t_BAKE_CERAMIC2_p7_k2_3 t_FIRE_KILN2_k2_1))) (let ((?v_7 (<= ?v_51 10)) (?v_49 (- t_BAKE_CERAMIC2_p7_k2_2 t_FIRE_KILN2_k2_1))) (let ((?v_8 (<= ?v_49 10)) (?v_48 (- t_BAKE_CERAMIC2_p8_k2_3 t_FIRE_KILN2_k2_1))) (let ((?v_9 (<= ?v_48 10)) (?v_46 (- t_BAKE_CERAMIC2_p8_k2_2 t_FIRE_KILN2_k2_1))) (let ((?v_10 (<= ?v_46 10)) (?v_43 (- t_BAKE_CERAMIC2_p5_k2_3 t_FIRE_KILN2_k2_1))) (let ((?v_11 (<= ?v_43 10)) (?v_41 (- t_BAKE_CERAMIC2_p5_k2_2 t_FIRE_KILN2_k2_1))) (let ((?v_12 (<= ?v_41 10)) (?v_40 (- t_BAKE_CERAMIC2_p6_k2_3 t_FIRE_KILN2_k2_1))) (let ((?v_13 (<= ?v_40 10)) (?v_38 (- t_BAKE_CERAMIC2_p6_k2_2 t_FIRE_KILN2_k2_1))) (let ((?v_14 (<= ?v_38 10)) (?v_29 (- t_BAKE_CERAMIC1_p3_k2_2 t_FIRE_KILN2_k2_1))) (let ((?v_15 (<= ?v_29 5)) (?v_26 (- t_BAKE_CERAMIC1_p4_k2_2 t_FIRE_KILN2_k2_1))) (let ((?v_16 (<= ?v_26 5)) (?v_18 (- t_BAKE_CERAMIC1_p1_k2_2 t_FIRE_KILN2_k2_1))) (let ((?v_17 (<= ?v_18 5)) (?v_0 (- t_BAKE_CERAMIC1_p2_k2_2 t_FIRE_KILN2_k2_1)) (?v_1 (- t_TREAT_CERAMIC1_p2_3 t_BAKE_CERAMIC1_p2_k2_2)) (?v_31 (- t_BAKE_CERAMIC1_p3_k2_3 t_FIRE_KILN2_k2_2))) (let ((?v_20 (<= ?v_31 5)) (?v_28 (- t_BAKE_CERAMIC1_p4_k2_3 t_FIRE_KILN2_k2_2))) (let ((?v_21 (<= ?v_28 5)) (?v_23 (- t_BAKE_CERAMIC1_p1_k2_3 t_FIRE_KILN2_k2_2))) (let ((?v_22 (<= ?v_23 5)) (?v_2 (- t_BAKE_CERAMIC1_p2_k2_3 t_FIRE_KILN2_k2_2)) (?v_19 (- t_TREAT_CERAMIC1_p1_3 t_BAKE_CERAMIC1_p1_k2_2)) (?v_60 (- t_BAKE_STRUCTURE_p9_p10_k1_5 t_FIRE_KILN1_k1_1))) (let ((?v_32 (<= ?v_60 5)) (?v_52 (- t_BAKE_STRUCTURE_p7_p8_k1_5 t_FIRE_KILN1_k1_1))) (let ((?v_33 (<= ?v_52 5)) (?v_44 (- t_BAKE_STRUCTURE_p5_p6_k1_5 t_FIRE_KILN1_k1_1))) (let ((?v_34 (<= ?v_44 5)) (?v_36 (- t_BAKE_STRUCTURE_p3_p4_k1_5 t_FIRE_KILN1_k1_1))) (let ((?v_35 (<= ?v_36 5)) (?v_24 (- t_BAKE_STRUCTURE_p1_p2_k1_5 t_FIRE_KILN1_k1_1)) (?v_27 (- t_TREAT_CERAMIC1_p4_3 t_BAKE_CERAMIC1_p4_k2_2)) (?v_30 (- t_TREAT_CERAMIC1_p3_3 t_BAKE_CERAMIC1_p3_k2_2)) (?v_39 (- t_TREAT_CERAMIC2_p6_3 t_BAKE_CERAMIC2_p6_k2_2)) (?v_42 (- t_TREAT_CERAMIC2_p5_3 t_BAKE_CERAMIC2_p5_k2_2)) (?v_47 (- t_TREAT_CERAMIC2_p8_3 t_BAKE_CERAMIC2_p8_k2_2)) (?v_50 (- t_TREAT_CERAMIC2_p7_3 t_BAKE_CERAMIC2_p7_k2_2)) (?v_55 (- t_TREAT_CERAMIC2_p10_3 t_BAKE_CERAMIC2_p10_k2_2)) (?v_58 (- t_TREAT_CERAMIC2_p9_3 t_BAKE_CERAMIC2_p9_k2_2)) (?v_95 (- t_BAKE_CERAMIC1_p3_k2_3 t_FIRE_KILN2_k2_1)) (?v_62 (> (- t_FIRE_KILN2_k2_2 t_FIRE_KILN2_k2_1) 20))) (let ((?v_67 (or (<= ?v_95 5) ?v_62)) (?v_91 (- t_BAKE_CERAMIC1_p4_k2_3 t_FIRE_KILN2_k2_1))) (let ((?v_68 (or (<= ?v_91 5) ?v_62)) (?v_87 (- t_BAKE_CERAMIC1_p1_k2_3 t_FIRE_KILN2_k2_1))) (let ((?v_69 (or (<= ?v_87 5) ?v_62)) (?v_66 (- t_BAKE_CERAMIC1_p2_k2_3 t_FIRE_KILN2_k2_1)) (?v_65 (> (- t_FIRE_KILN2_k2_1 t_FIRE_KILN2_k2_2) 20)) (?v_64 (- t_BAKE_CERAMIC1_p2_k2_2 t_BAKE_CERAMIC1_p2_k2_3)) (?v_63 (- t_BAKE_CERAMIC1_p2_k2_3 t_BAKE_CERAMIC1_p2_k2_2))) (let ((?v_73 (or (<= (- t_BAKE_CERAMIC2_p9_k2_3 t_FIRE_KILN2_k2_2) 10) ?v_65)) (?v_74 (or (<= (- t_BAKE_CERAMIC2_p9_k2_2 t_FIRE_KILN2_k2_2) 10) ?v_65)) (?v_75 (or (<= (- t_BAKE_CERAMIC2_p10_k2_3 t_FIRE_KILN2_k2_2) 10) ?v_65)) (?v_76 (or (<= (- t_BAKE_CERAMIC2_p10_k2_2 t_FIRE_KILN2_k2_2) 10) ?v_65)) (?v_77 (or (<= (- t_BAKE_CERAMIC2_p7_k2_3 t_FIRE_KILN2_k2_2) 10) ?v_65)) (?v_78 (or (<= (- t_BAKE_CERAMIC2_p7_k2_2 t_FIRE_KILN2_k2_2) 10) ?v_65)) (?v_79 (or (<= (- t_BAKE_CERAMIC2_p8_k2_3 t_FIRE_KILN2_k2_2) 10) ?v_65)) (?v_80 (or (<= (- t_BAKE_CERAMIC2_p8_k2_2 t_FIRE_KILN2_k2_2) 10) ?v_65)) (?v_81 (or (<= (- t_BAKE_CERAMIC2_p5_k2_3 t_FIRE_KILN2_k2_2) 10) ?v_65)) (?v_82 (or (<= (- t_BAKE_CERAMIC2_p5_k2_2 t_FIRE_KILN2_k2_2) 10) ?v_65)) (?v_83 (or (<= (- t_BAKE_CERAMIC2_p6_k2_3 t_FIRE_KILN2_k2_2) 10) ?v_65)) (?v_84 (or (<= (- t_BAKE_CERAMIC2_p6_k2_2 t_FIRE_KILN2_k2_2) 10) ?v_65)) (?v_92 (- t_BAKE_CERAMIC1_p3_k2_2 t_FIRE_KILN2_k2_2))) (let ((?v_85 (or (<= ?v_92 5) ?v_65)) (?v_88 (- t_BAKE_CERAMIC1_p4_k2_2 t_FIRE_KILN2_k2_2))) (let ((?v_86 (or (<= ?v_88 5) ?v_65)) (?v_70 (- t_BAKE_CERAMIC1_p1_k2_2 t_FIRE_KILN2_k2_2)) (?v_72 (- t_BAKE_CERAMIC1_p1_k2_2 t_BAKE_CERAMIC1_p1_k2_3)) (?v_71 (- t_BAKE_CERAMIC1_p1_k2_3 t_BAKE_CERAMIC1_p1_k2_2)) (?v_90 (- t_BAKE_CERAMIC1_p4_k2_2 t_BAKE_CERAMIC1_p4_k2_3)) (?v_89 (- t_BAKE_CERAMIC1_p4_k2_3 t_BAKE_CERAMIC1_p4_k2_2)) (?v_94 (- t_BAKE_CERAMIC1_p3_k2_2 t_BAKE_CERAMIC1_p3_k2_3)) (?v_93 (- t_BAKE_CERAMIC1_p3_k2_3 t_BAKE_CERAMIC1_p3_k2_2)) (?v_97 (- t_BAKE_CERAMIC2_p6_k2_2 t_BAKE_CERAMIC2_p6_k2_3)) (?v_96 (- t_BAKE_CERAMIC2_p6_k2_3 t_BAKE_CERAMIC2_p6_k2_2)) (?v_99 (- t_BAKE_CERAMIC2_p5_k2_2 t_BAKE_CERAMIC2_p5_k2_3)) (?v_98 (- t_BAKE_CERAMIC2_p5_k2_3 t_BAKE_CERAMIC2_p5_k2_2)) (?v_101 (- t_BAKE_CERAMIC2_p8_k2_2 t_BAKE_CERAMIC2_p8_k2_3)) (?v_100 (- t_BAKE_CERAMIC2_p8_k2_3 t_BAKE_CERAMIC2_p8_k2_2)) (?v_103 (- t_BAKE_CERAMIC2_p7_k2_2 t_BAKE_CERAMIC2_p7_k2_3)) (?v_102 (- t_BAKE_CERAMIC2_p7_k2_3 t_BAKE_CERAMIC2_p7_k2_2)) (?v_105 (- t_BAKE_CERAMIC2_p10_k2_2 t_BAKE_CERAMIC2_p10_k2_3)) (?v_104 (- t_BAKE_CERAMIC2_p10_k2_3 t_BAKE_CERAMIC2_p10_k2_2)) (?v_107 (- t_BAKE_CERAMIC2_p9_k2_2 t_BAKE_CERAMIC2_p9_k2_3)) (?v_106 (- t_BAKE_CERAMIC2_p9_k2_3 t_BAKE_CERAMIC2_p9_k2_2))) (and (= St_spy_variable (+ 1 t_Init_0)) (>= t_Goal_6 t_Init_0) (>= (- t_BAKE_CERAMIC1_p2_k2_2 t_Init_0) 0) (>= (- t_Goal_6 t_BAKE_CERAMIC1_p2_k2_2) 15) (>= (- t_TREAT_CERAMIC1_p2_3 t_Init_0) 0) (>= (- t_Goal_6 t_TREAT_CERAMIC1_p2_3) 3) (>= (- t_BAKE_CERAMIC1_p2_k2_3 t_Init_0) 0) (>= (- t_Goal_6 t_BAKE_CERAMIC1_p2_k2_3) 15) (>= (- t_BAKE_CERAMIC1_p1_k2_2 t_Init_0) 0) (>= (- t_Goal_6 t_BAKE_CERAMIC1_p1_k2_2) 15) (>= (- t_TREAT_CERAMIC1_p1_3 t_Init_0) 0) (>= (- t_Goal_6 t_TREAT_CERAMIC1_p1_3) 3) (>= (- t_BAKE_CERAMIC1_p1_k2_3 t_Init_0) 0) (>= (- t_Goal_6 t_BAKE_CERAMIC1_p1_k2_3) 15) (>= (- t_MAKE_STRUCTURE_p1_p2_4 t_Init_0) 0) (>= (- t_Goal_6 t_MAKE_STRUCTURE_p1_p2_4) 1) (>= (- t_BAKE_STRUCTURE_p1_p2_k1_5 t_Init_0) 0) (>= ?v_25 3) (>= (- t_BAKE_CERAMIC1_p4_k2_2 t_Init_0) 0) (>= (- t_Goal_6 t_BAKE_CERAMIC1_p4_k2_2) 15) (>= (- t_TREAT_CERAMIC1_p4_3 t_Init_0) 0) (>= (- t_Goal_6 t_TREAT_CERAMIC1_p4_3) 3) (>= (- t_BAKE_CERAMIC1_p4_k2_3 t_Init_0) 0) (>= (- t_Goal_6 t_BAKE_CERAMIC1_p4_k2_3) 15) (>= (- t_BAKE_CERAMIC1_p3_k2_2 t_Init_0) 0) (>= (- t_Goal_6 t_BAKE_CERAMIC1_p3_k2_2) 15) (>= (- t_TREAT_CERAMIC1_p3_3 t_Init_0) 0) (>= (- t_Goal_6 t_TREAT_CERAMIC1_p3_3) 3) (>= (- t_FIRE_KILN2_k2_2 t_Init_0) 0) (>= (- t_Goal_6 t_FIRE_KILN2_k2_2) 20) (>= (- t_BAKE_CERAMIC1_p3_k2_3 t_Init_0) 0) (>= (- t_Goal_6 t_BAKE_CERAMIC1_p3_k2_3) 15) (>= (- t_MAKE_STRUCTURE_p3_p4_4 t_Init_0) 0) (>= (- t_Goal_6 t_MAKE_STRUCTURE_p3_p4_4) 1) (>= (- t_BAKE_STRUCTURE_p3_p4_k1_5 t_Init_0) 0) (>= ?v_37 3) (>= (- t_BAKE_CERAMIC2_p6_k2_2 t_Init_0) 0) (>= (- t_Goal_6 t_BAKE_CERAMIC2_p6_k2_2) 10) (>= (- t_TREAT_CERAMIC2_p6_3 t_Init_0) 0) (>= (- t_Goal_6 t_TREAT_CERAMIC2_p6_3) 2) (>= (- t_BAKE_CERAMIC2_p6_k2_3 t_Init_0) 0) (>= (- t_Goal_6 t_BAKE_CERAMIC2_p6_k2_3) 10) (>= (- t_BAKE_CERAMIC2_p5_k2_2 t_Init_0) 0) (>= (- t_Goal_6 t_BAKE_CERAMIC2_p5_k2_2) 10) (>= (- t_TREAT_CERAMIC2_p5_3 t_Init_0) 0) (>= (- t_Goal_6 t_TREAT_CERAMIC2_p5_3) 2) (>= (- t_BAKE_CERAMIC2_p5_k2_3 t_Init_0) 0) (>= (- t_Goal_6 t_BAKE_CERAMIC2_p5_k2_3) 10) (>= (- t_MAKE_STRUCTURE_p5_p6_4 t_Init_0) 0) (>= (- t_Goal_6 t_MAKE_STRUCTURE_p5_p6_4) 1) (>= (- t_BAKE_STRUCTURE_p5_p6_k1_5 t_Init_0) 0) (>= ?v_45 3) (>= (- t_BAKE_CERAMIC2_p8_k2_2 t_Init_0) 0) (>= (- t_Goal_6 t_BAKE_CERAMIC2_p8_k2_2) 10) (>= (- t_TREAT_CERAMIC2_p8_3 t_Init_0) 0) (>= (- t_Goal_6 t_TREAT_CERAMIC2_p8_3) 2) (>= (- t_BAKE_CERAMIC2_p8_k2_3 t_Init_0) 0) (>= (- t_Goal_6 t_BAKE_CERAMIC2_p8_k2_3) 10) (>= (- t_BAKE_CERAMIC2_p7_k2_2 t_Init_0) 0) (>= (- t_Goal_6 t_BAKE_CERAMIC2_p7_k2_2) 10) (>= (- t_TREAT_CERAMIC2_p7_3 t_Init_0) 0) (>= (- t_Goal_6 t_TREAT_CERAMIC2_p7_3) 2) (>= (- t_BAKE_CERAMIC2_p7_k2_3 t_Init_0) 0) (>= (- t_Goal_6 t_BAKE_CERAMIC2_p7_k2_3) 10) (>= (- t_MAKE_STRUCTURE_p7_p8_4 t_Init_0) 0) (>= (- t_Goal_6 t_MAKE_STRUCTURE_p7_p8_4) 1) (>= (- t_BAKE_STRUCTURE_p7_p8_k1_5 t_Init_0) 0) (>= ?v_53 3) (>= (- t_BAKE_CERAMIC2_p10_k2_2 t_Init_0) 0) (>= (- t_Goal_6 t_BAKE_CERAMIC2_p10_k2_2) 10) (>= (- t_TREAT_CERAMIC2_p10_3 t_Init_0) 0) (>= (- t_Goal_6 t_TREAT_CERAMIC2_p10_3) 2) (>= (- t_BAKE_CERAMIC2_p10_k2_3 t_Init_0) 0) (>= (- t_Goal_6 t_BAKE_CERAMIC2_p10_k2_3) 10) (>= (- t_BAKE_CERAMIC2_p9_k2_2 t_Init_0) 0) (>= (- t_Goal_6 t_BAKE_CERAMIC2_p9_k2_2) 10) (>= (- t_TREAT_CERAMIC2_p9_3 t_Init_0) 0) (>= (- t_Goal_6 t_TREAT_CERAMIC2_p9_3) 2) (>= (- t_FIRE_KILN2_k2_1 t_Init_0) 0) (>= (- t_Goal_6 t_FIRE_KILN2_k2_1) 20) (>= (- t_BAKE_CERAMIC2_p9_k2_3 t_Init_0) 0) (>= (- t_Goal_6 t_BAKE_CERAMIC2_p9_k2_3) 10) (>= (- t_MAKE_STRUCTURE_p9_p10_4 t_Init_0) 0) (>= (- t_Goal_6 t_MAKE_STRUCTURE_p9_p10_4) 1) (>= (- t_FIRE_KILN1_k1_1 t_Init_0) 0) (>= (- t_Goal_6 t_FIRE_KILN1_k1_1) 8) (>= (- t_BAKE_STRUCTURE_p9_p10_k1_5 t_Init_0) 0) (>= ?v_61 3) ?v_3 ?v_4 ?v_5 ?v_6 ?v_7 ?v_8 ?v_9 ?v_10 ?v_11 ?v_12 ?v_13 ?v_14 ?v_15 ?v_16 ?v_17 (<= ?v_0 5) (< ?v_0 5) (>= ?v_0 2) (<= ?v_1 12) (>= ?v_1 0) (>= (- t_MAKE_STRUCTURE_p1_p2_4 t_TREAT_CERAMIC1_p2_3) 3) ?v_20 ?v_21 ?v_22 (<= ?v_2 5) (< ?v_2 5) (>= ?v_2 2) (>= (- t_MAKE_STRUCTURE_p1_p2_4 t_BAKE_CERAMIC1_p2_k2_3) 15) ?v_3 ?v_4 ?v_5 ?v_6 ?v_7 ?v_8 ?v_9 ?v_10 ?v_11 ?v_12 ?v_13 ?v_14 ?v_15 ?v_16 ?v_17 (< ?v_18 5) (>= ?v_18 2) (<= ?v_19 12) (>= ?v_19 0) (>= (- t_MAKE_STRUCTURE_p1_p2_4 t_TREAT_CERAMIC1_p1_3) 3) ?v_20 ?v_21 ?v_22 (< ?v_23 5) (>= ?v_23 2) (>= (- t_MAKE_STRUCTURE_p1_p2_4 t_BAKE_CERAMIC1_p1_k2_3) 15) (>= (- t_BAKE_STRUCTURE_p1_p2_k1_5 t_MAKE_STRUCTURE_p1_p2_4) 1) ?v_32 ?v_33 ?v_34 ?v_35 (<= ?v_24 5) (< ?v_24 5) (>= ?v_24 1) (>= ?v_25 4) ?v_3 ?v_4 ?v_5 ?v_6 ?v_7 ?v_8 ?v_9 ?v_10 ?v_11 ?v_12 ?v_13 ?v_14 ?v_15 ?v_16 (< ?v_26 5) (>= ?v_26 2) (<= ?v_27 12) (>= ?v_27 0) (>= (- t_MAKE_STRUCTURE_p3_p4_4 t_TREAT_CERAMIC1_p4_3) 3) ?v_20 ?v_21 (< ?v_28 5) (>= ?v_28 2) (>= (- t_MAKE_STRUCTURE_p3_p4_4 t_BAKE_CERAMIC1_p4_k2_3) 15) ?v_3 ?v_4 ?v_5 ?v_6 ?v_7 ?v_8 ?v_9 ?v_10 ?v_11 ?v_12 ?v_13 ?v_14 ?v_15 (< ?v_29 5) (>= ?v_29 2) (<= ?v_30 12) (>= ?v_30 0) (>= (- t_MAKE_STRUCTURE_p3_p4_4 t_TREAT_CERAMIC1_p3_3) 3) ?v_20 (>= ?v_31 2) (>= (- t_MAKE_STRUCTURE_p3_p4_4 t_BAKE_CERAMIC1_p3_k2_3) 15) (>= (- t_BAKE_STRUCTURE_p3_p4_k1_5 t_MAKE_STRUCTURE_p3_p4_4) 1) ?v_32 ?v_33 ?v_34 ?v_35 (< ?v_36 5) (>= ?v_36 1) (>= ?v_37 4) ?v_3 ?v_4 ?v_5 ?v_6 ?v_7 ?v_8 ?v_9 ?v_10 ?v_11 ?v_12 ?v_13 ?v_14 (< ?v_38 10) (>= ?v_38 2) (<= ?v_39 8) (>= ?v_39 0) (>= (- t_MAKE_STRUCTURE_p5_p6_4 t_TREAT_CERAMIC2_p6_3) 2) ?v_3 ?v_4 ?v_5 ?v_6 ?v_7 ?v_8 ?v_9 ?v_10 ?v_11 ?v_12 ?v_13 (< ?v_40 10) (>= ?v_40 2) (>= (- t_MAKE_STRUCTURE_p5_p6_4 t_BAKE_CERAMIC2_p6_k2_3) 10) ?v_3 ?v_4 ?v_5 ?v_6 ?v_7 ?v_8 ?v_9 ?v_10 ?v_11 ?v_12 (< ?v_41 10) (>= ?v_41 2) (<= ?v_42 8) (>= ?v_42 0) (>= (- t_MAKE_STRUCTURE_p5_p6_4 t_TREAT_CERAMIC2_p5_3) 2) ?v_3 ?v_4 ?v_5 ?v_6 ?v_7 ?v_8 ?v_9 ?v_10 ?v_11 (< ?v_43 10) (>= ?v_43 2) (>= (- t_MAKE_STRUCTURE_p5_p6_4 t_BAKE_CERAMIC2_p5_k2_3) 10) (>= (- t_BAKE_STRUCTURE_p5_p6_k1_5 t_MAKE_STRUCTURE_p5_p6_4) 1) ?v_32 ?v_33 ?v_34 (< ?v_44 5) (>= ?v_44 1) (>= ?v_45 4) ?v_3 ?v_4 ?v_5 ?v_6 ?v_7 ?v_8 ?v_9 ?v_10 (< ?v_46 10) (>= ?v_46 2) (<= ?v_47 8) (>= ?v_47 0) (>= (- t_MAKE_STRUCTURE_p7_p8_4 t_TREAT_CERAMIC2_p8_3) 2) ?v_3 ?v_4 ?v_5 ?v_6 ?v_7 ?v_8 ?v_9 (< ?v_48 10) (>= ?v_48 2) (>= (- t_MAKE_STRUCTURE_p7_p8_4 t_BAKE_CERAMIC2_p8_k2_3) 10) ?v_3 ?v_4 ?v_5 ?v_6 ?v_7 ?v_8 (< ?v_49 10) (>= ?v_49 2) (<= ?v_50 8) (>= ?v_50 0) (>= (- t_MAKE_STRUCTURE_p7_p8_4 t_TREAT_CERAMIC2_p7_3) 2) ?v_3 ?v_4 ?v_5 ?v_6 ?v_7 (< ?v_51 10) (>= ?v_51 2) (>= (- t_MAKE_STRUCTURE_p7_p8_4 t_BAKE_CERAMIC2_p7_k2_3) 10) (>= (- t_BAKE_STRUCTURE_p7_p8_k1_5 t_MAKE_STRUCTURE_p7_p8_4) 1) ?v_32 ?v_33 (< ?v_52 5) (>= ?v_52 1) (>= ?v_53 4) ?v_3 ?v_4 ?v_5 ?v_6 (< ?v_54 10) (>= ?v_54 2) (<= ?v_55 8) (>= ?v_55 0) (>= (- t_MAKE_STRUCTURE_p9_p10_4 t_TREAT_CERAMIC2_p10_3) 2) ?v_3 ?v_4 ?v_5 (< ?v_56 10) (>= ?v_56 2) (>= (- t_MAKE_STRUCTURE_p9_p10_4 t_BAKE_CERAMIC2_p10_k2_3) 10) ?v_3 ?v_4 (< ?v_57 10) (>= ?v_57 2) (<= ?v_58 8) (>= ?v_58 0) (>= (- t_MAKE_STRUCTURE_p9_p10_4 t_TREAT_CERAMIC2_p9_3) 2) ?v_3 (>= ?v_59 2) (>= (- t_MAKE_STRUCTURE_p9_p10_4 t_BAKE_CERAMIC2_p9_k2_3) 10) (>= (- t_BAKE_STRUCTURE_p9_p10_k1_5 t_MAKE_STRUCTURE_p9_p10_4) 1) ?v_32 (>= ?v_60 1) (>= ?v_61 4) ?v_67 ?v_68 ?v_69 (or (<= ?v_66 5) ?v_62) (or ?v_65 (< (- t_BAKE_CERAMIC1_p2_k2_2 t_FIRE_KILN2_k2_2) 5)) (or (>= (- t_BAKE_CERAMIC1_p2_k2_2 t_MAKE_STRUCTURE_p1_p2_4) 1) (< ?v_64 10)) (or (<= ?v_63 0) (> ?v_63 15)) (or (>= ?v_64 5) (> ?v_63 10)) (or (> ?v_64 15) (< (- t_TREAT_CERAMIC1_p2_3 t_BAKE_CERAMIC1_p2_k2_3) 12)) ?v_73 ?v_74 ?v_75 ?v_76 ?v_77 ?v_78 ?v_79 ?v_80 ?v_81 ?v_82 ?v_83 ?v_84 ?v_85 ?v_86 (or (<= ?v_70 5) ?v_65) (or ?v_62 (< ?v_66 5)) ?v_67 ?v_68 ?v_69 (or ?v_65 (< ?v_70 5)) (or (>= (- t_BAKE_CERAMIC1_p1_k2_2 t_MAKE_STRUCTURE_p1_p2_4) 1) (< ?v_72 10)) (or (<= ?v_71 0) (> ?v_71 15)) (or (>= ?v_72 5) (> ?v_71 10)) (or (> ?v_72 15) (< (- t_TREAT_CERAMIC1_p1_3 t_BAKE_CERAMIC1_p1_k2_3) 12)) ?v_73 ?v_74 ?v_75 ?v_76 ?v_77 ?v_78 ?v_79 ?v_80 ?v_81 ?v_82 ?v_83 ?v_84 ?v_85 ?v_86 (or ?v_62 (< ?v_87 5)) ?v_67 ?v_68 (or ?v_65 (< ?v_88 5)) (or (>= (- t_BAKE_CERAMIC1_p4_k2_2 t_MAKE_STRUCTURE_p3_p4_4) 1) (< ?v_90 10)) (or (<= ?v_89 0) (> ?v_89 15)) (or (>= ?v_90 5) (> ?v_89 10)) (or (> ?v_90 15) (< (- t_TREAT_CERAMIC1_p4_3 t_BAKE_CERAMIC1_p4_k2_3) 12)) ?v_73 ?v_74 ?v_75 ?v_76 ?v_77 ?v_78 ?v_79 ?v_80 ?v_81 ?v_82 ?v_83 ?v_84 ?v_85 (or ?v_62 (< ?v_91 5)) ?v_67 (or ?v_65 (< ?v_92 5)) (or (>= (- t_BAKE_CERAMIC1_p3_k2_2 t_MAKE_STRUCTURE_p3_p4_4) 1) (< ?v_94 10)) (or (<= ?v_93 0) (> ?v_93 15)) (or (>= ?v_94 5) (> ?v_93 10)) (or (> ?v_94 15) (< (- t_TREAT_CERAMIC1_p3_3 t_BAKE_CERAMIC1_p3_k2_3) 12)) ?v_73 ?v_74 ?v_75 ?v_76 ?v_77 ?v_78 ?v_79 ?v_80 ?v_81 ?v_82 ?v_83 ?v_84 (or ?v_62 (< ?v_95 5)) (or (>= (- t_BAKE_CERAMIC2_p6_k2_2 t_MAKE_STRUCTURE_p5_p6_4) 1) (< ?v_97 7)) (or (<= ?v_96 0) (> ?v_96 10)) (or (>= ?v_97 3) (> ?v_96 7)) (or (> ?v_97 10) (< (- t_TREAT_CERAMIC2_p6_3 t_BAKE_CERAMIC2_p6_k2_3) 8)) (or (>= (- t_BAKE_CERAMIC2_p5_k2_2 t_MAKE_STRUCTURE_p5_p6_4) 1) (< ?v_99 7)) (or (<= ?v_98 0) (> ?v_98 10)) (or (>= ?v_99 3) (> ?v_98 7)) (or (> ?v_99 10) (< (- t_TREAT_CERAMIC2_p5_3 t_BAKE_CERAMIC2_p5_k2_3) 8)) (or (>= (- t_BAKE_CERAMIC2_p8_k2_2 t_MAKE_STRUCTURE_p7_p8_4) 1) (< ?v_101 7)) (or (<= ?v_100 0) (> ?v_100 10)) (or (>= ?v_101 3) (> ?v_100 7)) (or (> ?v_101 10) (< (- t_TREAT_CERAMIC2_p8_3 t_BAKE_CERAMIC2_p8_k2_3) 8)) (or (>= (- t_BAKE_CERAMIC2_p7_k2_2 t_MAKE_STRUCTURE_p7_p8_4) 1) (< ?v_103 7)) (or (<= ?v_102 0) (> ?v_102 10)) (or (>= ?v_103 3) (> ?v_102 7)) (or (> ?v_103 10) (< (- t_TREAT_CERAMIC2_p7_3 t_BAKE_CERAMIC2_p7_k2_3) 8)) (or (>= (- t_BAKE_CERAMIC2_p10_k2_2 t_MAKE_STRUCTURE_p9_p10_4) 1) (< ?v_105 7)) (or (<= ?v_104 0) (> ?v_104 10)) (or (>= ?v_105 3) (> ?v_104 7)) (or (> ?v_105 10) (< (- t_TREAT_CERAMIC2_p10_3 t_BAKE_CERAMIC2_p10_k2_3) 8)) (or (>= (- t_BAKE_CERAMIC2_p9_k2_2 t_MAKE_STRUCTURE_p9_p10_4) 1) (< ?v_107 7)) (or (<= ?v_106 0) (> ?v_106 10)) (or (>= ?v_107 3) (> ?v_106 7)) (or (> ?v_107 10) (< (- t_TREAT_CERAMIC2_p9_3 t_BAKE_CERAMIC2_p9_k2_3) 8)))))))))))))))))))))))))))))))))
(check-sat)
(exit)
